(set-logic QF_LRA)
(declare-fun T1 () Real )
(declare-fun T2 () Real )
(declare-fun T3 () Real )
(declare-fun T4 () Real )
(declare-fun T5 () Real )
(declare-fun T6 () Real )
(declare-fun Z () Real )
(assert ( and 
(or ( <= ( + T1 24 ) T2 ) ( <= ( + T2 22 ) T1 ) )
(or ( <= ( + T1 95 )  ( + T2 22 ) ) ( <= ( + T2 46 )( + T1 24 ) ) )
(or ( <= ( + T1 112 )  ( + T2 46 ) ) ( <= ( + T2 145 )( + T1 95 ) ) )
(or ( <= ( + T1 139 )  ( + T2 145 ) ) ( <= ( + T2 183 )( + T1 112 ) ) )
(or ( <= ( + T1 24 ) T3 ) ( <= ( + T3 79 ) T1 ) )
(or ( <= ( + T1 95 )  ( + T3 79 ) ) ( <= ( + T3 152 )( + T1 24 ) ) )
(or ( <= ( + T1 112 )  ( + T3 152 ) ) ( <= ( + T3 157 )( + T1 95 ) ) )
(or ( <= ( + T1 139 )  ( + T3 157 ) ) ( <= ( + T3 177 )( + T1 112 ) ) )
(or ( <= ( + T1 24 ) T4 ) ( <= ( + T4 67 ) T1 ) )
(or ( <= ( + T1 95 )  ( + T4 67 ) ) ( <= ( + T4 159 )( + T1 24 ) ) )
(or ( <= ( + T1 112 )  ( + T4 159 ) ) ( <= ( + T4 182 )( + T1 95 ) ) )
(or ( <= ( + T1 139 )  ( + T4 182 ) ) ( <= ( + T4 266 )( + T1 112 ) ) )
(or ( <= ( + T1 24 ) T5 ) ( <= ( + T5 3 ) T1 ) )
(or ( <= ( + T1 95 )  ( + T5 3 ) ) ( <= ( + T5 44 )( + T1 24 ) ) )
(or ( <= ( + T1 112 )  ( + T5 44 ) ) ( <= ( + T5 96 )( + T1 95 ) ) )
(or ( <= ( + T1 139 )  ( + T5 96 ) ) ( <= ( + T5 170 )( + T1 112 ) ) )
(or ( <= ( + T1 24 ) T6 ) ( <= ( + T6 78 ) T1 ) )
(or ( <= ( + T1 95 )  ( + T6 78 ) ) ( <= ( + T6 100 )( + T1 24 ) ) )
(or ( <= ( + T1 112 )  ( + T6 100 ) ) ( <= ( + T6 140 )( + T1 95 ) ) )
(or ( <= ( + T1 139 )  ( + T6 140 ) ) ( <= ( + T6 150 )( + T1 112 ) ) )
(or ( <= ( + T2 22 ) T3 ) ( <= ( + T3 79 ) T2 ) )
(or ( <= ( + T2 46 )  ( + T3 79 ) ) ( <= ( + T3 152 )( + T2 22 ) ) )
(or ( <= ( + T2 145 )  ( + T3 152 ) ) ( <= ( + T3 157 )( + T2 46 ) ) )
(or ( <= ( + T2 183 )  ( + T3 157 ) ) ( <= ( + T3 177 )( + T2 145 ) ) )
(or ( <= ( + T2 22 ) T4 ) ( <= ( + T4 67 ) T2 ) )
(or ( <= ( + T2 46 )  ( + T4 67 ) ) ( <= ( + T4 159 )( + T2 22 ) ) )
(or ( <= ( + T2 145 )  ( + T4 159 ) ) ( <= ( + T4 182 )( + T2 46 ) ) )
(or ( <= ( + T2 183 )  ( + T4 182 ) ) ( <= ( + T4 266 )( + T2 145 ) ) )
(or ( <= ( + T2 22 ) T5 ) ( <= ( + T5 3 ) T2 ) )
(or ( <= ( + T2 46 )  ( + T5 3 ) ) ( <= ( + T5 44 )( + T2 22 ) ) )
(or ( <= ( + T2 145 )  ( + T5 44 ) ) ( <= ( + T5 96 )( + T2 46 ) ) )
(or ( <= ( + T2 183 )  ( + T5 96 ) ) ( <= ( + T5 170 )( + T2 145 ) ) )
(or ( <= ( + T2 22 ) T6 ) ( <= ( + T6 78 ) T2 ) )
(or ( <= ( + T2 46 )  ( + T6 78 ) ) ( <= ( + T6 100 )( + T2 22 ) ) )
(or ( <= ( + T2 145 )  ( + T6 100 ) ) ( <= ( + T6 140 )( + T2 46 ) ) )
(or ( <= ( + T2 183 )  ( + T6 140 ) ) ( <= ( + T6 150 )( + T2 145 ) ) )
(or ( <= ( + T3 79 ) T4 ) ( <= ( + T4 67 ) T3 ) )
(or ( <= ( + T3 152 )  ( + T4 67 ) ) ( <= ( + T4 159 )( + T3 79 ) ) )
(or ( <= ( + T3 157 )  ( + T4 159 ) ) ( <= ( + T4 182 )( + T3 152 ) ) )
(or ( <= ( + T3 177 )  ( + T4 182 ) ) ( <= ( + T4 266 )( + T3 157 ) ) )
(or ( <= ( + T3 79 ) T5 ) ( <= ( + T5 3 ) T3 ) )
(or ( <= ( + T3 152 )  ( + T5 3 ) ) ( <= ( + T5 44 )( + T3 79 ) ) )
(or ( <= ( + T3 157 )  ( + T5 44 ) ) ( <= ( + T5 96 )( + T3 152 ) ) )
(or ( <= ( + T3 177 )  ( + T5 96 ) ) ( <= ( + T5 170 )( + T3 157 ) ) )
(or ( <= ( + T3 79 ) T6 ) ( <= ( + T6 78 ) T3 ) )
(or ( <= ( + T3 152 )  ( + T6 78 ) ) ( <= ( + T6 100 )( + T3 79 ) ) )
(or ( <= ( + T3 157 )  ( + T6 100 ) ) ( <= ( + T6 140 )( + T3 152 ) ) )
(or ( <= ( + T3 177 )  ( + T6 140 ) ) ( <= ( + T6 150 )( + T3 157 ) ) )
(or ( <= ( + T4 67 ) T5 ) ( <= ( + T5 3 ) T4 ) )
(or ( <= ( + T4 159 )  ( + T5 3 ) ) ( <= ( + T5 44 )( + T4 67 ) ) )
(or ( <= ( + T4 182 )  ( + T5 44 ) ) ( <= ( + T5 96 )( + T4 159 ) ) )
(or ( <= ( + T4 266 )  ( + T5 96 ) ) ( <= ( + T5 170 )( + T4 182 ) ) )
(or ( <= ( + T4 67 ) T6 ) ( <= ( + T6 78 ) T4 ) )
(or ( <= ( + T4 159 )  ( + T6 78 ) ) ( <= ( + T6 100 )( + T4 67 ) ) )
(or ( <= ( + T4 182 )  ( + T6 100 ) ) ( <= ( + T6 140 )( + T4 159 ) ) )
(or ( <= ( + T4 266 )  ( + T6 140 ) ) ( <= ( + T6 150 )( + T4 182 ) ) )
(or ( <= ( + T5 3 ) T6 ) ( <= ( + T6 78 ) T5 ) )
(or ( <= ( + T5 44 )  ( + T6 78 ) ) ( <= ( + T6 100 )( + T5 3 ) ) )
(or ( <= ( + T5 96 )  ( + T6 100 ) ) ( <= ( + T6 140 )( + T5 44 ) ) )
(or ( <= ( + T5 170 )  ( + T6 140 ) ) ( <= ( + T6 150 )( + T5 96 ) ) )
( <= ( + T1 139 ) Z)
( <= ( + T2 183 ) Z)
( <= ( + T3 177 ) Z)
( <= ( + T4 266 ) Z)
( <= ( + T5 170 ) Z)
( <= ( + T6 150 ) Z)
( >= T1 0 )
( >= T2 0 )
( >= T3 0 )
( >= T4 0 )
( >= T5 0 )
( >= T6 0 )
) )
(minimize Z)
(check-sat)